20
10000 10000
2885 7079
272 831
1499 7295
2873 9382
5466 8243
4919 6596
5044 3882
5361 1631
7126 3530
8576 1418
2227 8085
3914 9211
9949 4117
8879 8860
6088 6975
3198 4828
415 8491
5356 6214
322 7425
4409 8136
